201582.76,43.27,53.66
205608.91,42.42,52.61
206416.2,42.26,52.4
215637.18,40.45,50.16
197820.56,44.09,54.68
196352.17,44.42,55.09
195364.45,44.65,55.37
194993.64,44.73,55.47
218272.74,39.96,49.56
218955.74,39.84,49.4
201066.93,43.38,53.8
195051.67,44.72,55.46
202804.13,43.01,53.34
191399.12,45.57,56.51
193157.13,45.16,56.0
196526.19,44.38,55.04
219274.15,39.78,49.33
211568.2,41.23,51.13
198895.74,43.86,54.38
192714.48,45.26,56.13
